50 4
16 63 46 42 80 46 58 100 54 77 17 82 71 59 98 43 93 59 76 97 88 21 45 27 37 88 41 74 95 68 61 56 54 69 54 95 46 43 91 75 27 41 11 55 55 71 58 23 38 28
47 52 52 62 27 34 83 93 14 43 62 33 55 29 77 23 59 51 94 86 17 45 72 83 75 75 46 99 68 71 74 29 30 15 69 11 62 68 61 49 33 77 11 60 44 15 43 17 100 51
58 58 50 35 95 80 13 33 88 49 45 46 96 30 17 62 59 30 52 30 32 80 74 85 91 32 59 85 84 13 32 19 78 37 53 55 20 70 81 28 69 77 64 33 61 74 12 44 74 84
90 68 35 43 49 29 80 71 45 70 84 23 22 15 67 25 66 53 71 88 41 67 82 46 22 55 70 56 62 24 65 58 39 46 40 44 42 13 28 88 72 54 83 94 40 53 20 44 27 79
